14
-1 71 61 84 14 28 37 92 4 62 73 98 31 43 
71 -1 94 12 89 23 48 37 96 20 1 41 39 61 
61 94 -1 47 35 58 4 16 1 56 6 44 63 69 
84 12 47 -1 61 85 91 38 42 61 18 82 27 28 
14 89 35 61 -1 50 78 53 40 44 68 26 95 81 
28 23 58 85 50 -1 17 2 81 60 31 81 68 18 
37 48 4 91 78 17 -1 73 12 42 41 24 80 53 
92 37 16 38 53 2 73 -1 67 69 33 59 82 86 
4 96 1 42 40 81 12 67 -1 36 55 70 68 29 
62 20 56 61 44 60 42 69 36 -1 91 8 86 23 
73 1 6 18 68 31 41 33 55 91 -1 80 7 52 
98 41 44 82 26 81 24 59 70 8 80 -1 36 29 
31 39 63 27 95 68 80 82 68 86 7 36 -1 11 
43 61 69 28 81 18 53 86 29 23 52 29 11 -1 
